Nodes = {"ATLAM5", "ATLAng", "CHINng", "DNVRng", "HSTNng", "IPLSng", "KSCYng", "LOSAng", "NYCMng", "SNVAng", "STTLng", "WASHng"};
Arcs = {<"ATLAM5","ATLAng",10,2,1>, <"ATLAM5","CHINng",10,76,0>, <"ATLAM5","DNVRng",10,474,0>, <"ATLAM5","HSTNng",10,140,0>, <"ATLAM5","IPLSng",10,40,0>, <"ATLAM5","KSCYng",10,176,0>, <"ATLAM5","LOSAng",10,1147,0>, <"ATLAM5","NYCMng",10,158,0>, <"ATLAM5","SNVAng",10,1430,0>, <"ATLAM5","STTLng",10,1629,0>, <"ATLAM5","WASHng",10,81,0>, <"ATLAng","ATLAM5",10,2,1>, <"ATLAng","CHINng",10,58,0>, <"ATLAng","DNVRng",10,419,0>, <"ATLAng","HSTNng",10,123,1>, <"ATLAng","IPLSng",10,28,1>, <"ATLAng","KSCYng",10,143,0>, <"ATLAng","LOSAng",10,1073,0>, <"ATLAng","NYCMng",10,172,0>, <"ATLAng","SNVAng",10,1342,0>, <"ATLAng","STTLng",10,1526,0>, <"ATLAng","WASHng",10,91,1>, <"CHINng","ATLAM5",10,76,0>, <"CHINng","ATLAng",10,58,0>, <"CHINng","DNVRng",10,303,0>, <"CHINng","HSTNng",10,208,0>, <"CHINng","IPLSng",10,6,1>, <"CHINng","KSCYng",10,89,0>, <"CHINng","LOSAng",10,999,0>, <"CHINng","NYCMng",10,187,1>, <"CHINng","SNVAng",10,1204,0>, <"CHINng","STTLng",10,1236,0>, <"CHINng","WASHng",10,121,0>, <"DNVRng","ATLAM5",10,474,0>, <"DNVRng","ATLAng",10,419,0>, <"DNVRng","CHINng",10,303,0>, <"DNVRng","HSTNng",10,210,0>, <"DNVRng","IPLSng",10,356,0>, <"DNVRng","KSCYng",10,74,1>, <"DNVRng","LOSAng",10,220,0>, <"DNVRng","NYCMng",10,963,0>, <"DNVRng","SNVAng",10,301,1>, <"DNVRng","STTLng",10,346,1>, <"DNVRng","WASHng",10,786,0>, <"HSTNng","ATLAM5",10,140,0>, <"HSTNng","ATLAng",10,123,1>, <"HSTNng","CHINng",10,208,0>, <"HSTNng","DNVRng",10,210,0>, <"HSTNng","IPLSng",10,188,0>, <"HSTNng","KSCYng",10,86,1>, <"HSTNng","LOSAng",10,535,1>, <"HSTNng","NYCMng",10,586,0>, <"HSTNng","SNVAng",10,761,0>, <"HSTNng","STTLng",10,1035,0>, <"HSTNng","WASHng",10,425,0>, <"IPLSng","ATLAM5",10,40,0>, <"IPLSng","ATLAng",10,28,1>, <"IPLSng","CHINng",10,6,1>, <"IPLSng","DNVRng",10,356,0>, <"IPLSng","HSTNng",10,188,0>, <"IPLSng","KSCYng",10,110,1>, <"IPLSng","LOSAng",10,1063,0>, <"IPLSng","NYCMng",10,150,0>, <"IPLSng","SNVAng",10,1292,0>, <"IPLSng","STTLng",10,1367,0>, <"IPLSng","WASHng",10,84,0>, <"KSCYng","ATLAM5",10,176,0>, <"KSCYng","ATLAng",10,143,0>, <"KSCYng","CHINng",10,89,0>, <"KSCYng","DNVRng",10,74,1>, <"KSCYng","HSTNng",10,86,1>, <"KSCYng","IPLSng",10,110,1>, <"KSCYng","LOSAng",10,493,0>, <"KSCYng","NYCMng",10,515,0>, <"KSCYng","SNVAng",10,649,0>, <"KSCYng","STTLng",10,735,0>, <"KSCYng","WASHng",10,383,0>, <"LOSAng","ATLAM5",10,1147,0>, <"LOSAng","ATLAng",10,1073,0>, <"LOSAng","CHINng",10,999,0>, <"LOSAng","DNVRng",10,220,0>, <"LOSAng","HSTNng",10,535,1>, <"LOSAng","IPLSng",10,1063,0>, <"LOSAng","KSCYng",10,493,0>, <"LOSAng","NYCMng",10,2006,0>, <"LOSAng","SNVAng",10,25,1>, <"LOSAng","STTLng",10,200,0>, <"LOSAng","WASHng",10,1723,0>, <"NYCMng","ATLAM5",10,158,0>, <"NYCMng","ATLAng",10,172,0>, <"NYCMng","CHINng",10,187,1>, <"NYCMng","DNVRng",10,963,0>, <"NYCMng","HSTNng",10,586,0>, <"NYCMng","IPLSng",10,150,0>, <"NYCMng","KSCYng",10,515,0>, <"NYCMng","LOSAng",10,2006,0>, <"NYCMng","SNVAng",10,2321,0>, <"NYCMng","STTLng",10,2383,0>, <"NYCMng","WASHng",10,13,1>, <"SNVAng","ATLAM5",10,1430,0>, <"SNVAng","ATLAng",10,1342,0>, <"SNVAng","CHINng",10,1204,0>, <"SNVAng","DNVRng",10,301,1>, <"SNVAng","HSTNng",10,761,0>, <"SNVAng","IPLSng",10,1292,0>, <"SNVAng","KSCYng",10,649,0>, <"SNVAng","LOSAng",10,25,1>, <"SNVAng","NYCMng",10,2321,0>, <"SNVAng","STTLng",10,104,1>, <"SNVAng","WASHng",10,2027,0>, <"STTLng","ATLAM5",10,1629,0>, <"STTLng","ATLAng",10,1526,0>, <"STTLng","CHINng",10,1236,0>, <"STTLng","DNVRng",10,346,1>, <"STTLng","HSTNng",10,1035,0>, <"STTLng","IPLSng",10,1367,0>, <"STTLng","KSCYng",10,735,0>, <"STTLng","LOSAng",10,200,0>, <"STTLng","NYCMng",10,2383,0>, <"STTLng","SNVAng",10,104,1>, <"STTLng","WASHng",10,2125,0>, <"WASHng","ATLAM5",10,81,0>, <"WASHng","ATLAng",10,91,1>, <"WASHng","CHINng",10,121,0>, <"WASHng","DNVRng",10,786,0>, <"WASHng","HSTNng",10,425,0>, <"WASHng","IPLSng",10,84,0>, <"WASHng","KSCYng",10,383,0>, <"WASHng","LOSAng",10,1723,0>, <"WASHng","NYCMng",10,13,1>, <"WASHng","SNVAng",10,2027,0>, <"WASHng","STTLng",10,2125,0>};
Demands = {<"ATLAM5","ATLAng",10>, <"ATLAM5","CHINng",20>, <"ATLAM5","DNVRng",30>, <"ATLAM5","HSTNng",40>, <"ATLAM5","IPLSng",50>, <"ATLAM5","KSCYng",60>, <"ATLAM5","LOSAng",70>, <"ATLAM5","NYCMng",80>, <"ATLAM5","SNVAng",90>, <"ATLAM5","STTLng",100>, <"ATLAM5","WASHng",110>, <"ATLAng","ATLAM5",10>, <"ATLAng","CHINng",10>, <"ATLAng","DNVRng",20>, <"ATLAng","HSTNng",30>, <"ATLAng","IPLSng",40>, <"ATLAng","KSCYng",50>, <"ATLAng","LOSAng",60>, <"ATLAng","NYCMng",70>, <"ATLAng","SNVAng",80>, <"ATLAng","STTLng",90>, <"ATLAng","WASHng",100>, <"CHINng","ATLAM5",20>, <"CHINng","ATLAng",10>, <"CHINng","DNVRng",10>, <"CHINng","HSTNng",20>, <"CHINng","IPLSng",30>, <"CHINng","KSCYng",40>, <"CHINng","LOSAng",50>, <"CHINng","NYCMng",60>, <"CHINng","SNVAng",70>, <"CHINng","STTLng",80>, <"CHINng","WASHng",90>, <"DNVRng","ATLAM5",30>, <"DNVRng","ATLAng",20>, <"DNVRng","CHINng",10>, <"DNVRng","HSTNng",10>, <"DNVRng","IPLSng",20>, <"DNVRng","KSCYng",30>, <"DNVRng","LOSAng",40>, <"DNVRng","NYCMng",50>, <"DNVRng","SNVAng",60>, <"DNVRng","STTLng",70>, <"DNVRng","WASHng",80>, <"HSTNng","ATLAM5",40>, <"HSTNng","ATLAng",30>, <"HSTNng","CHINng",20>, <"HSTNng","DNVRng",10>, <"HSTNng","IPLSng",10>, <"HSTNng","KSCYng",20>, <"HSTNng","LOSAng",30>, <"HSTNng","NYCMng",40>, <"HSTNng","SNVAng",50>, <"HSTNng","STTLng",60>, <"HSTNng","WASHng",70>, <"IPLSng","ATLAM5",50>, <"IPLSng","ATLAng",40>, <"IPLSng","CHINng",30>, <"IPLSng","DNVRng",20>, <"IPLSng","HSTNng",10>, <"IPLSng","KSCYng",10>, <"IPLSng","LOSAng",20>, <"IPLSng","NYCMng",30>, <"IPLSng","SNVAng",40>, <"IPLSng","STTLng",50>, <"IPLSng","WASHng",60>, <"KSCYng","ATLAM5",60>, <"KSCYng","ATLAng",50>, <"KSCYng","CHINng",40>, <"KSCYng","DNVRng",30>, <"KSCYng","HSTNng",20>, <"KSCYng","IPLSng",10>, <"KSCYng","LOSAng",10>, <"KSCYng","NYCMng",20>, <"KSCYng","SNVAng",30>, <"KSCYng","STTLng",40>, <"KSCYng","WASHng",50>, <"LOSAng","ATLAM5",70>, <"LOSAng","ATLAng",60>, <"LOSAng","CHINng",50>, <"LOSAng","DNVRng",40>, <"LOSAng","HSTNng",30>, <"LOSAng","IPLSng",20>, <"LOSAng","KSCYng",10>, <"LOSAng","NYCMng",10>, <"LOSAng","SNVAng",20>, <"LOSAng","STTLng",30>, <"LOSAng","WASHng",40>, <"NYCMng","ATLAM5",80>, <"NYCMng","ATLAng",70>, <"NYCMng","CHINng",60>, <"NYCMng","DNVRng",50>, <"NYCMng","HSTNng",40>, <"NYCMng","IPLSng",30>, <"NYCMng","KSCYng",20>, <"NYCMng","LOSAng",10>, <"NYCMng","SNVAng",10>, <"NYCMng","STTLng",20>, <"NYCMng","WASHng",30>, <"SNVAng","ATLAM5",90>, <"SNVAng","ATLAng",80>, <"SNVAng","CHINng",70>, <"SNVAng","DNVRng",60>, <"SNVAng","HSTNng",50>, <"SNVAng","IPLSng",40>, <"SNVAng","KSCYng",30>, <"SNVAng","LOSAng",20>, <"SNVAng","NYCMng",10>, <"SNVAng","STTLng",10>, <"SNVAng","WASHng",20>, <"STTLng","ATLAM5",100>, <"STTLng","ATLAng",90>, <"STTLng","CHINng",80>, <"STTLng","DNVRng",70>, <"STTLng","HSTNng",60>, <"STTLng","IPLSng",50>, <"STTLng","KSCYng",40>, <"STTLng","LOSAng",30>, <"STTLng","NYCMng",20>, <"STTLng","SNVAng",10>, <"STTLng","WASHng",10>, <"WASHng","ATLAM5",110>, <"WASHng","ATLAng",100>, <"WASHng","CHINng",90>, <"WASHng","DNVRng",80>, <"WASHng","HSTNng",70>, <"WASHng","IPLSng",60>, <"WASHng","KSCYng",50>, <"WASHng","LOSAng",40>, <"WASHng","NYCMng",30>, <"WASHng","SNVAng",20>, <"WASHng","STTLng",10>};
